
  12    4
  10   10   10   10

   0   0   0   0   0   1 2 
   2  10  10  10  10   1 3 
   9  10  10  10  10   2 5 4 
   2  10  10  10  10   3 8 7 6 
   8  10  10  10  10   1 6 
   5  10  10  10  10   2 11 9 
   7  10  10  10  10   2 11 9 
   6  10  10  10  10   1 9 
   7  10  10  10  10   1 10 
   4  10  10  10  10   1 12
   4  10  10  10  10   1 12
   0   0   0   0   0   0 
